/*Funcao para minimizar o tamanho das arestas*/
min: 1 XA_B + 4 XA_C + 8 XA_D + 3 XB_C + 3 XB_F + 7 XC_D + 7 XC_E + 6 XC_F + 4 XD_E + 5 XD_G + 2 XD_H + 8 XE_F + 3 XE_G + 2 XE_H + 4 XF_K + 6 XG_H + 3 XG_I + 4 XG_J + 2 XH_J + 4 XH_K + 7 XH_L + 5 XI_J + 6 XJ_L + 2 XK_L;
/*O numero de arestas de um arvore minima é o numero dos vertices - 1*/
C1: XA_B + XA_C + XA_D + XB_C + XB_F + XC_D + XC_E + XC_F + XD_E + XD_G + XD_H + XE_F + XE_G + XE_H + XF_K + XG_H + XG_I + XG_J + XH_J + XH_K + XH_L + XI_J + XJ_L + XK_L = 11;
/*Proibir ciclos de percusso*/
/*Proibir ciclos de tamanho 3*/
C2: XA_B + XB_C + XA_C <= 2;
C3: XA_C + XC_D + XA_D <= 2;
C4: XB_C + XC_F + XB_F <= 2;
C5: XC_D + XD_E + XC_E <= 2;
C6: XC_E + XE_F + XC_F <= 2;
C7: XD_E + XE_G + XD_G <= 2;
C8: XD_G + XG_I + XD_I <= 2;
C9: XD_H + XE_H + XD_E <= 2;
C10: XD_H + XG_H + XD_G <= 2;
C11: XE_G + XG_H + XE_H <= 2;
C12: XG_H + XH_J + XG_J <= 2;
C13: XG_I + XI_J + XG_J <= 2;
C14: XH_J + XJ_L + XH_L <= 2;
C15: XH_K + XK_L + XH_L <= 2;
/*Proibir ciclos de tamanho 4*/
C16: XA_B + XB_C + XC_D + XA_D <= 3;
C17: XA_B + XB_F + XC_F + XA_C <= 3;
C18: XA_C + XC_E + XD_E + XA_D <= 3;
C19: XB_C + XC_E + XE_F + XB_F <= 3;
C20: XC_D + XD_E + XE_F + XC_F <= 3;
C21: XC_D + XD_G + XE_G + XC_E <= 3;
C22: XC_D + XD_H + XE_H + XC_E <= 3;
C23: XD_E + XE_G + XG_I + XD_I <= 3;
C24: XD_E + XE_H + XG_H + XD_G <= 3;
C25: XD_G + XG_J + XI_J + XD_I <= 3;
C26: XD_H + XG_H + XG_I + XD_I <= 3;
C27: XD_H + XH_J + XG_J + XD_G <= 3;
C28: XD_H + XH_J + XI_J + XD_I <= 3;
C29: XE_F + XF_K + XH_K + XE_H <= 3;
C30: XE_G + XG_J + XH_J + XE_H <= 3;
C31: XG_H + XH_J + XI_J + XG_I <= 3;
C32: XG_H + XH_L + XJ_L + XG_J <= 3;
C33: XH_J + XJ_L + XK_L + XH_K <= 3;
/*Proibir ciclos de tamanho 5*/
C34: XA_B + XB_C + XC_E + XD_E + XA_D <= 4;
C35: XA_B + XB_F + XC_F + XC_D + XA_D <= 4;
C36: XA_B + XB_F + XE_F + XC_E + XA_C <= 4;
C37: XA_B + XB_F + XE_F + XD_E + XA_D <= 4;
C38: XA_C + XC_E + XE_G + XD_G + XA_D <= 4;
C39: XA_C + XC_F + XE_F + XD_E + XA_D <= 4;
C40: XA_D + XD_H + XE_H + XC_E + XA_C <= 4;
C41: XB_C + XC_D + XD_E + XE_F + XB_F <= 4;
C42: XC_D + XD_G + XE_G + XE_F + XC_F <= 4;
C43: XC_D + XD_G + XG_H + XE_H + XC_E <= 4;
C44: XC_D + XD_H + XE_H + XE_F + XC_F <= 4;
C45: XC_D + XD_H + XH_K + XF_K + XC_F <= 4;
C46: XC_E + XE_G + XG_I + XD_I + XC_D <= 4;
C47: XC_E + XE_H + XH_K + XF_K + XC_F <= 4;
C48: XD_E + XE_G + XG_J + XI_J + XD_I <= 4;
C49: XD_E + XE_H + XG_H + XG_I + XD_I <= 4;
C50: XD_E + XE_H + XH_J + XG_J + XD_G <= 4;
C51: XD_E + XE_H + XH_J + XI_J + XD_I <= 4;
C52: XD_G + XG_H + XH_J + XI_J + XD_I <= 4;
C53: XD_H + XH_K + XF_K + XE_F + XD_E <= 4;
C54: XD_H + XH_L + XJ_L + XG_J + XD_G <= 4;
C55: XD_H + XH_L + XJ_L + XI_J + XD_I <= 4;
C56: XE_F + XF_K + XH_K + XG_H + XE_G <= 4;
C57: XE_F + XF_K + XK_L + XH_L + XE_H <= 4;
C58: XE_G + XG_I + XI_J + XH_J + XE_H <= 4;
C59: XE_G + XG_J + XJ_L + XH_L + XE_H <= 4;
C60: XG_H + XH_K + XK_L + XJ_L + XG_J <= 4;
C61: XG_H + XH_L + XJ_L + XI_J + XG_I <= 4;
/*Proibir ciclos de tamanho 6*/
C62: XA_B + XB_C + XC_E + XE_G + XD_G + XA_D <= 5;
C63: XA_B + XB_C + XC_F + XE_F + XD_E + XA_D <= 5;
C64: XA_B + XB_F + XE_F + XE_G + XD_G + XA_D <= 5;
C65: XA_C + XC_E + XE_G + XG_I + XD_I + XA_D <= 5;
C66: XA_C + XC_E + XE_H + XG_H + XD_G + XA_D <= 5;
C67: XA_C + XC_F + XE_F + XE_G + XD_G + XA_D <= 5;
C68: XA_D + XD_H + XE_H + XC_E + XB_C + XA_B <= 5;
C69: XA_D + XD_H + XE_H + XE_F + XB_F + XA_B <= 5;
C70: XA_D + XD_H + XE_H + XE_F + XC_F + XA_C <= 5;
C71: XA_D + XD_H + XH_K + XF_K + XB_F + XA_B <= 5;
C72: XA_D + XD_H + XH_K + XF_K + XC_F + XA_C <= 5;
C73: XB_C + XC_D + XD_G + XE_G + XE_F + XB_F <= 5;
C74: XB_C + XC_D + XD_H + XE_H + XE_F + XB_F <= 5;
C75: XB_C + XC_D + XD_H + XH_K + XF_K + XB_F <= 5;
C76: XB_C + XC_E + XE_H + XH_K + XF_K + XB_F <= 5;
C77: XC_D + XD_E + XE_H + XH_K + XF_K + XC_F <= 5;
C78: XC_D + XD_G + XG_H + XE_H + XE_F + XC_F <= 5;
C79: XC_D + XD_G + XG_H + XH_K + XF_K + XC_F <= 5;
C80: XC_D + XD_G + XG_J + XH_J + XE_H + XC_E <= 5;
C81: XC_D + XD_H + XH_L + XK_L + XF_K + XC_F <= 5;
C82: XC_E + XE_G + XG_H + XH_K + XF_K + XC_F <= 5;
C83: XC_E + XE_G + XG_J + XI_J + XD_I + XC_D <= 5;
C84: XC_E + XE_H + XG_H + XG_I + XD_I + XC_D <= 5;
C85: XC_E + XE_H + XH_J + XI_J + XD_I + XC_D <= 5;
C86: XC_E + XE_H + XH_L + XK_L + XF_K + XC_F <= 5;
C87: XC_F + XE_F + XE_G + XG_I + XD_I + XC_D <= 5;
C88: XD_E + XE_F + XF_K + XH_K + XG_H + XD_G <= 5;
C89: XD_E + XE_G + XG_H + XH_J + XI_J + XD_I <= 5;
C90: XD_E + XE_H + XH_L + XJ_L + XG_J + XD_G <= 5;
C91: XD_E + XE_H + XH_L + XJ_L + XI_J + XD_I <= 5;
C92: XD_G + XG_H + XH_L + XJ_L + XI_J + XD_I <= 5;
C93: XD_H + XH_K + XK_L + XJ_L + XG_J + XD_G <= 5;
C94: XD_H + XH_K + XK_L + XJ_L + XI_J + XD_I <= 5;
C95: XD_H + XH_L + XK_L + XF_K + XE_F + XD_E <= 5;
C96: XE_F + XF_K + XH_K + XH_J + XG_J + XE_G <= 5;
C97: XE_F + XF_K + XK_L + XH_L + XG_H + XE_G <= 5;
C98: XE_F + XF_K + XK_L + XJ_L + XG_J + XE_G <= 5;
C99: XE_F + XF_K + XK_L + XJ_L + XH_J + XE_H <= 5;
C100: XE_G + XG_I + XI_J + XJ_L + XH_L + XE_H <= 5;
C101: XE_G + XG_J + XJ_L + XK_L + XH_K + XE_H <= 5;
C102: XG_H + XH_K + XK_L + XJ_L + XI_J + XG_I <= 5;
/*Proibir ciclos de tamanho 7*/
C103: XA_B + XB_C + XC_E + XE_G + XG_I + XD_I + XA_D <= 6;
C104: XA_B + XB_C + XC_E + XE_H + XG_H + XD_G + XA_D <= 6;
C105: XA_B + XB_C + XC_F + XE_F + XE_G + XD_G + XA_D <= 6;
C106: XA_B + XB_F + XE_F + XE_G + XG_I + XD_I + XA_D <= 6;
C107: XA_B + XB_F + XE_F + XE_H + XG_H + XD_G + XA_D <= 6;
C108: XA_B + XB_F + XF_K + XH_K + XE_H + XC_E + XA_C <= 6;
C109: XA_B + XB_F + XF_K + XH_K + XE_H + XD_E + XA_D <= 6;
C110: XA_B + XB_F + XF_K + XH_K + XG_H + XD_G + XA_D <= 6;
C111: XA_C + XC_D + XD_H + XE_H + XE_F + XB_F + XA_B <= 6;
C112: XA_C + XC_D + XD_H + XH_K + XF_K + XB_F + XA_B <= 6;
C113: XA_C + XC_E + XE_G + XG_J + XI_J + XD_I + XA_D <= 6;
C114: XA_C + XC_E + XE_H + XG_H + XG_I + XD_I + XA_D <= 6;
C115: XA_C + XC_E + XE_H + XH_J + XG_J + XD_G + XA_D <= 6;
C116: XA_C + XC_E + XE_H + XH_J + XI_J + XD_I + XA_D <= 6;
C117: XA_C + XC_F + XE_F + XE_G + XG_I + XD_I + XA_D <= 6;
C118: XA_C + XC_F + XE_F + XE_H + XG_H + XD_G + XA_D <= 6;
C119: XA_C + XC_F + XF_K + XH_K + XE_H + XD_E + XA_D <= 6;
C120: XA_C + XC_F + XF_K + XH_K + XG_H + XD_G + XA_D <= 6;
C121: XA_D + XD_H + XH_L + XK_L + XF_K + XB_F + XA_B <= 6;
C122: XA_D + XD_H + XH_L + XK_L + XF_K + XC_F + XA_C <= 6;
C123: XB_C + XC_D + XD_E + XE_H + XH_K + XF_K + XB_F <= 6;
C124: XB_C + XC_D + XD_G + XG_H + XE_H + XE_F + XB_F <= 6;
C125: XB_C + XC_D + XD_G + XG_H + XH_K + XF_K + XB_F <= 6;
C126: XB_C + XC_D + XD_H + XH_L + XK_L + XF_K + XB_F <= 6;
C127: XB_C + XC_E + XE_G + XG_H + XH_K + XF_K + XB_F <= 6;
C128: XB_C + XC_E + XE_H + XH_L + XK_L + XF_K + XB_F <= 6;
C129: XB_F + XE_F + XE_G + XG_I + XD_I + XC_D + XB_C <= 6;
C130: XC_D + XD_E + XE_G + XG_H + XH_K + XF_K + XC_F <= 6;
C131: XC_D + XD_E + XE_H + XH_L + XK_L + XF_K + XC_F <= 6;
C132: XC_D + XD_G + XG_H + XH_L + XK_L + XF_K + XC_F <= 6;
C133: XC_D + XD_G + XG_I + XI_J + XH_J + XE_H + XC_E <= 6;
C134: XC_D + XD_G + XG_J + XH_J + XE_H + XE_F + XC_F <= 6;
C135: XC_D + XD_G + XG_J + XH_J + XH_K + XF_K + XC_F <= 6;
C136: XC_D + XD_G + XG_J + XJ_L + XH_L + XE_H + XC_E <= 6;
C137: XC_D + XD_G + XG_J + XJ_L + XK_L + XF_K + XC_F <= 6;
C138: XC_D + XD_H + XH_J + XJ_L + XK_L + XF_K + XC_F <= 6;
C139: XC_E + XE_G + XG_H + XH_L + XK_L + XF_K + XC_F <= 6;
C140: XC_E + XE_G + XG_J + XH_J + XH_K + XF_K + XC_F <= 6;
C141: XC_E + XE_G + XG_J + XJ_L + XK_L + XF_K + XC_F <= 6;
C142: XC_E + XE_H + XH_J + XJ_L + XK_L + XF_K + XC_F <= 6;
C143: XC_E + XE_H + XH_L + XJ_L + XI_J + XD_I + XC_D <= 6;
C144: XC_F + XE_F + XE_G + XG_J + XI_J + XD_I + XC_D <= 6;
C145: XC_F + XE_F + XE_H + XG_H + XG_I + XD_I + XC_D <= 6;
C146: XC_F + XE_F + XE_H + XH_J + XI_J + XD_I + XC_D <= 6;
C147: XC_F + XF_K + XH_K + XG_H + XG_I + XD_I + XC_D <= 6;
C148: XC_F + XF_K + XH_K + XH_J + XI_J + XD_I + XC_D <= 6;
C149: XC_F + XF_K + XK_L + XJ_L + XI_J + XD_I + XC_D <= 6;
C150: XD_E + XE_F + XF_K + XH_K + XG_H + XG_I + XD_I <= 6;
C151: XD_E + XE_F + XF_K + XH_K + XH_J + XG_J + XD_G <= 6;
C152: XD_E + XE_F + XF_K + XH_K + XH_J + XI_J + XD_I <= 6;
C153: XD_E + XE_F + XF_K + XK_L + XH_L + XG_H + XD_G <= 6;
C154: XD_E + XE_F + XF_K + XK_L + XJ_L + XG_J + XD_G <= 6;
C155: XD_E + XE_F + XF_K + XK_L + XJ_L + XI_J + XD_I <= 6;
C156: XD_E + XE_G + XG_H + XH_L + XJ_L + XI_J + XD_I <= 6;
C157: XD_E + XE_H + XH_K + XK_L + XJ_L + XG_J + XD_G <= 6;
C158: XD_E + XE_H + XH_K + XK_L + XJ_L + XI_J + XD_I <= 6;
C159: XD_G + XG_H + XH_K + XK_L + XJ_L + XI_J + XD_I <= 6;
C160: XD_H + XH_J + XJ_L + XK_L + XF_K + XE_F + XD_E <= 6;
C161: XE_F + XF_K + XH_K + XH_J + XI_J + XG_I + XE_G <= 6;
C162: XE_F + XF_K + XH_K + XH_L + XJ_L + XG_J + XE_G <= 6;
C163: XE_F + XF_K + XK_L + XJ_L + XI_J + XG_I + XE_G <= 6;
C164: XE_G + XG_I + XI_J + XJ_L + XK_L + XH_K + XE_H <= 6;
/*Proibir ciclos de tamanho 8*/
C165: XA_B + XB_C + XC_E + XE_G + XG_J + XI_J + XD_I + XA_D <= 7;
C166: XA_B + XB_C + XC_E + XE_H + XG_H + XG_I + XD_I + XA_D <= 7;
C167: XA_B + XB_C + XC_E + XE_H + XH_J + XG_J + XD_G + XA_D <= 7;
C168: XA_B + XB_C + XC_E + XE_H + XH_J + XI_J + XD_I + XA_D <= 7;
C169: XA_B + XB_C + XC_F + XE_F + XE_G + XG_I + XD_I + XA_D <= 7;
C170: XA_B + XB_C + XC_F + XE_F + XE_H + XG_H + XD_G + XA_D <= 7;
C171: XA_B + XB_C + XC_F + XF_K + XH_K + XE_H + XD_E + XA_D <= 7;
C172: XA_B + XB_C + XC_F + XF_K + XH_K + XG_H + XD_G + XA_D <= 7;
C173: XA_B + XB_F + XE_F + XE_G + XG_J + XI_J + XD_I + XA_D <= 7;
C174: XA_B + XB_F + XE_F + XE_H + XG_H + XG_I + XD_I + XA_D <= 7;
C175: XA_B + XB_F + XE_F + XE_H + XH_J + XG_J + XD_G + XA_D <= 7;
C176: XA_B + XB_F + XE_F + XE_H + XH_J + XI_J + XD_I + XA_D <= 7;
C177: XA_B + XB_F + XF_K + XH_K + XE_H + XE_G + XD_G + XA_D <= 7;
C178: XA_B + XB_F + XF_K + XH_K + XG_H + XE_G + XC_E + XA_C <= 7;
C179: XA_B + XB_F + XF_K + XH_K + XG_H + XG_I + XD_I + XA_D <= 7;
C180: XA_B + XB_F + XF_K + XH_K + XH_J + XG_J + XD_G + XA_D <= 7;
C181: XA_B + XB_F + XF_K + XH_K + XH_J + XI_J + XD_I + XA_D <= 7;
C182: XA_B + XB_F + XF_K + XK_L + XH_L + XE_H + XC_E + XA_C <= 7;
C183: XA_B + XB_F + XF_K + XK_L + XH_L + XE_H + XD_E + XA_D <= 7;
C184: XA_B + XB_F + XF_K + XK_L + XH_L + XG_H + XD_G + XA_D <= 7;
C185: XA_B + XB_F + XF_K + XK_L + XJ_L + XG_J + XD_G + XA_D <= 7;
C186: XA_B + XB_F + XF_K + XK_L + XJ_L + XI_J + XD_I + XA_D <= 7;
C187: XA_C + XC_D + XD_H + XH_L + XK_L + XF_K + XB_F + XA_B <= 7;
C188: XA_C + XC_E + XE_F + XF_K + XH_K + XG_H + XD_G + XA_D <= 7;
C189: XA_C + XC_E + XE_G + XG_H + XH_J + XI_J + XD_I + XA_D <= 7;
C190: XA_C + XC_E + XE_H + XH_L + XJ_L + XG_J + XD_G + XA_D <= 7;
C191: XA_C + XC_E + XE_H + XH_L + XJ_L + XI_J + XD_I + XA_D <= 7;
C192: XA_C + XC_F + XE_F + XE_G + XG_J + XI_J + XD_I + XA_D <= 7;
C193: XA_C + XC_F + XE_F + XE_H + XG_H + XG_I + XD_I + XA_D <= 7;
C194: XA_C + XC_F + XE_F + XE_H + XH_J + XG_J + XD_G + XA_D <= 7;
C195: XA_C + XC_F + XE_F + XE_H + XH_J + XI_J + XD_I + XA_D <= 7;
C196: XA_C + XC_F + XF_K + XH_K + XG_H + XG_I + XD_I + XA_D <= 7;
C197: XA_C + XC_F + XF_K + XH_K + XH_J + XG_J + XD_G + XA_D <= 7;
C198: XA_C + XC_F + XF_K + XH_K + XH_J + XI_J + XD_I + XA_D <= 7;
C199: XA_C + XC_F + XF_K + XK_L + XH_L + XE_H + XD_E + XA_D <= 7;
C200: XA_C + XC_F + XF_K + XK_L + XH_L + XG_H + XD_G + XA_D <= 7;
C201: XA_C + XC_F + XF_K + XK_L + XJ_L + XG_J + XD_G + XA_D <= 7;
C202: XA_C + XC_F + XF_K + XK_L + XJ_L + XI_J + XD_I + XA_D <= 7;
C203: XA_D + XD_H + XH_J + XJ_L + XK_L + XF_K + XB_F + XA_B <= 7;
C204: XA_D + XD_H + XH_J + XJ_L + XK_L + XF_K + XC_F + XA_C <= 7;
C205: XB_C + XC_D + XD_E + XE_G + XG_H + XH_K + XF_K + XB_F <= 7;
C206: XB_C + XC_D + XD_E + XE_H + XH_L + XK_L + XF_K + XB_F <= 7;
C207: XB_C + XC_D + XD_G + XG_H + XH_L + XK_L + XF_K + XB_F <= 7;
C208: XB_C + XC_D + XD_G + XG_J + XH_J + XE_H + XE_F + XB_F <= 7;
C209: XB_C + XC_D + XD_G + XG_J + XH_J + XH_K + XF_K + XB_F <= 7;
C210: XB_C + XC_D + XD_G + XG_J + XJ_L + XK_L + XF_K + XB_F <= 7;
C211: XB_C + XC_D + XD_H + XH_J + XJ_L + XK_L + XF_K + XB_F <= 7;
C212: XB_C + XC_E + XE_G + XG_H + XH_L + XK_L + XF_K + XB_F <= 7;
C213: XB_C + XC_E + XE_G + XG_J + XH_J + XH_K + XF_K + XB_F <= 7;
C214: XB_C + XC_E + XE_G + XG_J + XJ_L + XK_L + XF_K + XB_F <= 7;
C215: XB_C + XC_E + XE_H + XH_J + XJ_L + XK_L + XF_K + XB_F <= 7;
C216: XB_F + XE_F + XE_G + XG_J + XI_J + XD_I + XC_D + XB_C <= 7;
C217: XB_F + XE_F + XE_H + XG_H + XG_I + XD_I + XC_D + XB_C <= 7;
C218: XB_F + XE_F + XE_H + XH_J + XI_J + XD_I + XC_D + XB_C <= 7;
C219: XB_F + XF_K + XH_K + XG_H + XG_I + XD_I + XC_D + XB_C <= 7;
C220: XB_F + XF_K + XH_K + XH_J + XI_J + XD_I + XC_D + XB_C <= 7;
C221: XB_F + XF_K + XK_L + XJ_L + XI_J + XD_I + XC_D + XB_C <= 7;
C222: XC_D + XD_E + XE_G + XG_H + XH_L + XK_L + XF_K + XC_F <= 7;
C223: XC_D + XD_E + XE_G + XG_J + XH_J + XH_K + XF_K + XC_F <= 7;
C224: XC_D + XD_E + XE_G + XG_J + XJ_L + XK_L + XF_K + XC_F <= 7;
C225: XC_D + XD_E + XE_H + XH_J + XJ_L + XK_L + XF_K + XC_F <= 7;
C226: XC_D + XD_G + XG_H + XH_J + XJ_L + XK_L + XF_K + XC_F <= 7;
C227: XC_D + XD_G + XG_I + XI_J + XH_J + XE_H + XE_F + XC_F <= 7;
C228: XC_D + XD_G + XG_I + XI_J + XH_J + XH_K + XF_K + XC_F <= 7;
C229: XC_D + XD_G + XG_I + XI_J + XJ_L + XH_L + XE_H + XC_E <= 7;
C230: XC_D + XD_G + XG_I + XI_J + XJ_L + XK_L + XF_K + XC_F <= 7;
C231: XC_D + XD_G + XG_J + XJ_L + XH_L + XE_H + XE_F + XC_F <= 7;
C232: XC_D + XD_G + XG_J + XJ_L + XK_L + XH_K + XE_H + XC_E <= 7;
C233: XC_E + XE_F + XF_K + XH_K + XG_H + XG_I + XD_I + XC_D <= 7;
C234: XC_E + XE_F + XF_K + XH_K + XH_J + XI_J + XD_I + XC_D <= 7;
C235: XC_E + XE_F + XF_K + XK_L + XJ_L + XI_J + XD_I + XC_D <= 7;
C236: XC_E + XE_G + XG_H + XH_J + XJ_L + XK_L + XF_K + XC_F <= 7;
C237: XC_E + XE_G + XG_I + XI_J + XH_J + XH_K + XF_K + XC_F <= 7;
C238: XC_E + XE_G + XG_I + XI_J + XJ_L + XK_L + XF_K + XC_F <= 7;
C239: XC_E + XE_H + XH_K + XK_L + XJ_L + XI_J + XD_I + XC_D <= 7;
C240: XC_F + XE_F + XE_H + XH_L + XJ_L + XI_J + XD_I + XC_D <= 7;
C241: XC_F + XF_K + XH_K + XH_L + XJ_L + XI_J + XD_I + XC_D <= 7;
C242: XC_F + XF_K + XK_L + XH_L + XG_H + XG_I + XD_I + XC_D <= 7;
C243: XD_E + XE_F + XF_K + XH_K + XG_H + XG_J + XI_J + XD_I <= 7;
C244: XD_E + XE_F + XF_K + XH_K + XH_L + XJ_L + XG_J + XD_G <= 7;
C245: XD_E + XE_F + XF_K + XH_K + XH_L + XJ_L + XI_J + XD_I <= 7;
C246: XD_E + XE_F + XF_K + XK_L + XH_L + XG_H + XG_I + XD_I <= 7;
C247: XD_E + XE_F + XF_K + XK_L + XJ_L + XG_J + XG_I + XD_I <= 7;
C248: XD_E + XE_G + XG_H + XH_K + XK_L + XJ_L + XI_J + XD_I <= 7;
C249: XE_F + XF_K + XH_K + XH_L + XJ_L + XI_J + XG_I + XE_G <= 7;
/*Proibir ciclos de tamanho 9*/
C250: XA_B + XB_C + XC_E + XE_F + XF_K + XH_K + XG_H + XD_G + XA_D <= 8;
C251: XA_B + XB_C + XC_E + XE_G + XG_H + XH_J + XI_J + XD_I + XA_D <= 8;
C252: XA_B + XB_C + XC_E + XE_H + XH_L + XJ_L + XG_J + XD_G + XA_D <= 8;
C253: XA_B + XB_C + XC_E + XE_H + XH_L + XJ_L + XI_J + XD_I + XA_D <= 8;
C254: XA_B + XB_C + XC_F + XE_F + XE_G + XG_J + XI_J + XD_I + XA_D <= 8;
C255: XA_B + XB_C + XC_F + XE_F + XE_H + XG_H + XG_I + XD_I + XA_D <= 8;
C256: XA_B + XB_C + XC_F + XE_F + XE_H + XH_J + XG_J + XD_G + XA_D <= 8;
C257: XA_B + XB_C + XC_F + XE_F + XE_H + XH_J + XI_J + XD_I + XA_D <= 8;
C258: XA_B + XB_C + XC_F + XF_K + XH_K + XG_H + XG_I + XD_I + XA_D <= 8;
C259: XA_B + XB_C + XC_F + XF_K + XH_K + XH_J + XG_J + XD_G + XA_D <= 8;
C260: XA_B + XB_C + XC_F + XF_K + XH_K + XH_J + XI_J + XD_I + XA_D <= 8;
C261: XA_B + XB_C + XC_F + XF_K + XK_L + XH_L + XE_H + XD_E + XA_D <= 8;
C262: XA_B + XB_C + XC_F + XF_K + XK_L + XH_L + XG_H + XD_G + XA_D <= 8;
C263: XA_B + XB_C + XC_F + XF_K + XK_L + XJ_L + XG_J + XD_G + XA_D <= 8;
C264: XA_B + XB_C + XC_F + XF_K + XK_L + XJ_L + XI_J + XD_I + XA_D <= 8;
C265: XA_B + XB_F + XE_F + XE_G + XG_H + XH_J + XI_J + XD_I + XA_D <= 8;
C266: XA_B + XB_F + XE_F + XE_H + XH_L + XJ_L + XG_J + XD_G + XA_D <= 8;
C267: XA_B + XB_F + XE_F + XE_H + XH_L + XJ_L + XI_J + XD_I + XA_D <= 8;
C268: XA_B + XB_F + XF_K + XH_K + XE_H + XE_G + XG_I + XD_I + XA_D <= 8;
C269: XA_B + XB_F + XF_K + XH_K + XG_H + XG_J + XI_J + XD_I + XA_D <= 8;
C270: XA_B + XB_F + XF_K + XH_K + XH_J + XG_J + XE_G + XC_E + XA_C <= 8;
C271: XA_B + XB_F + XF_K + XH_K + XH_J + XG_J + XE_G + XD_E + XA_D <= 8;
C272: XA_B + XB_F + XF_K + XH_K + XH_L + XJ_L + XG_J + XD_G + XA_D <= 8;
C273: XA_B + XB_F + XF_K + XH_K + XH_L + XJ_L + XI_J + XD_I + XA_D <= 8;
C274: XA_B + XB_F + XF_K + XK_L + XH_L + XE_H + XE_G + XD_G + XA_D <= 8;
C275: XA_B + XB_F + XF_K + XK_L + XH_L + XG_H + XE_G + XC_E + XA_C <= 8;
C276: XA_B + XB_F + XF_K + XK_L + XH_L + XG_H + XG_I + XD_I + XA_D <= 8;
C277: XA_B + XB_F + XF_K + XK_L + XJ_L + XG_J + XE_G + XC_E + XA_C <= 8;
C278: XA_B + XB_F + XF_K + XK_L + XJ_L + XG_J + XE_G + XD_E + XA_D <= 8;
C279: XA_B + XB_F + XF_K + XK_L + XJ_L + XG_J + XG_I + XD_I + XA_D <= 8;
C280: XA_B + XB_F + XF_K + XK_L + XJ_L + XH_J + XE_H + XC_E + XA_C <= 8;
C281: XA_B + XB_F + XF_K + XK_L + XJ_L + XH_J + XE_H + XD_E + XA_D <= 8;
C282: XA_C + XC_D + XD_H + XH_J + XJ_L + XK_L + XF_K + XB_F + XA_B <= 8;
C283: XA_C + XC_E + XE_F + XF_K + XH_K + XG_H + XG_I + XD_I + XA_D <= 8;
C284: XA_C + XC_E + XE_F + XF_K + XH_K + XH_J + XG_J + XD_G + XA_D <= 8;
C285: XA_C + XC_E + XE_F + XF_K + XH_K + XH_J + XI_J + XD_I + XA_D <= 8;
C286: XA_C + XC_E + XE_F + XF_K + XK_L + XH_L + XG_H + XD_G + XA_D <= 8;
C287: XA_C + XC_E + XE_F + XF_K + XK_L + XJ_L + XG_J + XD_G + XA_D <= 8;
C288: XA_C + XC_E + XE_F + XF_K + XK_L + XJ_L + XI_J + XD_I + XA_D <= 8;
C289: XA_C + XC_E + XE_G + XG_H + XH_L + XJ_L + XI_J + XD_I + XA_D <= 8;
C290: XA_C + XC_E + XE_H + XH_K + XK_L + XJ_L + XG_J + XD_G + XA_D <= 8;
C291: XA_C + XC_E + XE_H + XH_K + XK_L + XJ_L + XI_J + XD_I + XA_D <= 8;
C292: XA_C + XC_F + XE_F + XE_G + XG_H + XH_J + XI_J + XD_I + XA_D <= 8;
C293: XA_C + XC_F + XE_F + XE_H + XH_L + XJ_L + XG_J + XD_G + XA_D <= 8;
C294: XA_C + XC_F + XE_F + XE_H + XH_L + XJ_L + XI_J + XD_I + XA_D <= 8;
C295: XA_C + XC_F + XF_K + XH_K + XG_H + XG_J + XI_J + XD_I + XA_D <= 8;
C296: XA_C + XC_F + XF_K + XH_K + XH_L + XJ_L + XG_J + XD_G + XA_D <= 8;
C297: XA_C + XC_F + XF_K + XH_K + XH_L + XJ_L + XI_J + XD_I + XA_D <= 8;
C298: XA_C + XC_F + XF_K + XK_L + XH_L + XG_H + XG_I + XD_I + XA_D <= 8;
C299: XA_C + XC_F + XF_K + XK_L + XJ_L + XG_J + XG_I + XD_I + XA_D <= 8;
C300: XA_C + XC_F + XF_K + XK_L + XJ_L + XH_J + XE_H + XD_E + XA_D <= 8;
C301: XB_C + XC_D + XD_E + XE_G + XG_H + XH_L + XK_L + XF_K + XB_F <= 8;
C302: XB_C + XC_D + XD_E + XE_G + XG_J + XH_J + XH_K + XF_K + XB_F <= 8;
C303: XB_C + XC_D + XD_E + XE_G + XG_J + XJ_L + XK_L + XF_K + XB_F <= 8;
C304: XB_C + XC_D + XD_E + XE_H + XH_J + XJ_L + XK_L + XF_K + XB_F <= 8;
C305: XB_C + XC_D + XD_G + XG_H + XH_J + XJ_L + XK_L + XF_K + XB_F <= 8;
C306: XB_C + XC_D + XD_G + XG_I + XI_J + XH_J + XE_H + XE_F + XB_F <= 8;
C307: XB_C + XC_D + XD_G + XG_I + XI_J + XH_J + XH_K + XF_K + XB_F <= 8;
C308: XB_C + XC_D + XD_G + XG_I + XI_J + XJ_L + XK_L + XF_K + XB_F <= 8;
C309: XB_C + XC_D + XD_G + XG_J + XJ_L + XH_L + XE_H + XE_F + XB_F <= 8;
C310: XB_C + XC_E + XE_G + XG_H + XH_J + XJ_L + XK_L + XF_K + XB_F <= 8;
C311: XB_C + XC_E + XE_G + XG_I + XD_I + XD_H + XH_K + XF_K + XB_F <= 8;
C312: XB_C + XC_E + XE_G + XG_I + XI_J + XH_J + XH_K + XF_K + XB_F <= 8;
C313: XB_C + XC_E + XE_G + XG_I + XI_J + XJ_L + XK_L + XF_K + XB_F <= 8;
C314: XB_F + XE_F + XE_H + XH_L + XJ_L + XI_J + XD_I + XC_D + XB_C <= 8;
C315: XB_F + XF_K + XH_K + XH_J + XI_J + XD_I + XD_E + XC_E + XB_C <= 8;
C316: XB_F + XF_K + XH_K + XH_L + XJ_L + XI_J + XD_I + XC_D + XB_C <= 8;
C317: XB_F + XF_K + XK_L + XH_L + XG_H + XG_I + XD_I + XC_D + XB_C <= 8;
C318: XB_F + XF_K + XK_L + XJ_L + XI_J + XD_I + XD_E + XC_E + XB_C <= 8;
C319: XC_D + XD_E + XE_G + XG_H + XH_J + XJ_L + XK_L + XF_K + XC_F <= 8;
C320: XC_D + XD_E + XE_G + XG_I + XI_J + XH_J + XH_K + XF_K + XC_F <= 8;
C321: XC_D + XD_E + XE_G + XG_I + XI_J + XJ_L + XK_L + XF_K + XC_F <= 8;
C322: XC_D + XD_G + XG_I + XI_J + XH_J + XH_L + XK_L + XF_K + XC_F <= 8;
C323: XC_D + XD_G + XG_I + XI_J + XJ_L + XH_L + XE_H + XE_F + XC_F <= 8;
C324: XC_D + XD_G + XG_I + XI_J + XJ_L + XK_L + XH_K + XE_H + XC_E <= 8;
C325: XC_E + XE_F + XF_K + XH_K + XH_L + XJ_L + XI_J + XD_I + XC_D <= 8;
C326: XC_E + XE_F + XF_K + XK_L + XH_L + XG_H + XG_I + XD_I + XC_D <= 8;
C327: XC_E + XE_G + XG_I + XI_J + XH_J + XH_L + XK_L + XF_K + XC_F <= 8;
C328: XD_E + XE_F + XF_K + XH_K + XH_L + XJ_L + XG_J + XG_I + XD_I <= 8;
/*Proibir ciclos de tamanho 10*/
C329: XA_B + XB_C + XC_E + XE_F + XF_K + XH_K + XG_H + XG_I + XD_I + XA_D <= 9;
C330: XA_B + XB_C + XC_E + XE_F + XF_K + XH_K + XH_J + XG_J + XD_G + XA_D <= 9;
C331: XA_B + XB_C + XC_E + XE_F + XF_K + XH_K + XH_J + XI_J + XD_I + XA_D <= 9;
C332: XA_B + XB_C + XC_E + XE_F + XF_K + XK_L + XH_L + XG_H + XD_G + XA_D <= 9;
C333: XA_B + XB_C + XC_E + XE_F + XF_K + XK_L + XJ_L + XG_J + XD_G + XA_D <= 9;
C334: XA_B + XB_C + XC_E + XE_F + XF_K + XK_L + XJ_L + XI_J + XD_I + XA_D <= 9;
C335: XA_B + XB_C + XC_E + XE_G + XG_H + XH_L + XJ_L + XI_J + XD_I + XA_D <= 9;
C336: XA_B + XB_C + XC_E + XE_H + XH_K + XK_L + XJ_L + XG_J + XD_G + XA_D <= 9;
C337: XA_B + XB_C + XC_E + XE_H + XH_K + XK_L + XJ_L + XI_J + XD_I + XA_D <= 9;
C338: XA_B + XB_C + XC_F + XE_F + XE_G + XG_H + XH_J + XI_J + XD_I + XA_D <= 9;
C339: XA_B + XB_C + XC_F + XE_F + XE_H + XH_L + XJ_L + XG_J + XD_G + XA_D <= 9;
C340: XA_B + XB_C + XC_F + XE_F + XE_H + XH_L + XJ_L + XI_J + XD_I + XA_D <= 9;
C341: XA_B + XB_C + XC_F + XF_K + XH_K + XG_H + XG_J + XI_J + XD_I + XA_D <= 9;
C342: XA_B + XB_C + XC_F + XF_K + XH_K + XH_L + XJ_L + XG_J + XD_G + XA_D <= 9;
C343: XA_B + XB_C + XC_F + XF_K + XH_K + XH_L + XJ_L + XI_J + XD_I + XA_D <= 9;
C344: XA_B + XB_C + XC_F + XF_K + XK_L + XH_L + XG_H + XG_I + XD_I + XA_D <= 9;
C345: XA_B + XB_C + XC_F + XF_K + XK_L + XJ_L + XG_J + XG_I + XD_I + XA_D <= 9;
C346: XA_B + XB_C + XC_F + XF_K + XK_L + XJ_L + XH_J + XE_H + XD_E + XA_D <= 9;
C347: XA_B + XB_F + XE_F + XE_G + XG_H + XH_L + XJ_L + XI_J + XD_I + XA_D <= 9;
C348: XA_B + XB_F + XE_F + XE_H + XH_K + XK_L + XJ_L + XG_J + XD_G + XA_D <= 9;
C349: XA_B + XB_F + XE_F + XE_H + XH_K + XK_L + XJ_L + XI_J + XD_I + XA_D <= 9;
C350: XA_B + XB_F + XF_K + XH_K + XE_H + XE_G + XG_J + XI_J + XD_I + XA_D <= 9;
C351: XA_B + XB_F + XF_K + XH_K + XH_J + XI_J + XG_I + XE_G + XC_E + XA_C <= 9;
C352: XA_B + XB_F + XF_K + XH_K + XH_L + XJ_L + XG_J + XE_G + XC_E + XA_C <= 9;
C353: XA_B + XB_F + XF_K + XH_K + XH_L + XJ_L + XG_J + XG_I + XD_I + XA_D <= 9;
C354: XA_B + XB_F + XF_K + XK_L + XH_L + XE_H + XE_G + XG_I + XD_I + XA_D <= 9;
C355: XA_B + XB_F + XF_K + XK_L + XJ_L + XI_J + XG_I + XE_G + XC_E + XA_C <= 9;
C356: XA_B + XB_F + XF_K + XK_L + XJ_L + XI_J + XG_I + XE_G + XD_E + XA_D <= 9;
C357: XA_C + XC_E + XE_F + XF_K + XH_K + XG_H + XG_J + XI_J + XD_I + XA_D <= 9;
C358: XA_C + XC_E + XE_F + XF_K + XH_K + XH_L + XJ_L + XG_J + XD_G + XA_D <= 9;
C359: XA_C + XC_E + XE_F + XF_K + XH_K + XH_L + XJ_L + XI_J + XD_I + XA_D <= 9;
C360: XA_C + XC_E + XE_F + XF_K + XK_L + XH_L + XG_H + XG_I + XD_I + XA_D <= 9;
C361: XA_C + XC_E + XE_F + XF_K + XK_L + XJ_L + XG_J + XG_I + XD_I + XA_D <= 9;
C362: XA_C + XC_E + XE_G + XG_H + XH_K + XK_L + XJ_L + XI_J + XD_I + XA_D <= 9;
C363: XA_C + XC_F + XE_F + XE_G + XG_H + XH_L + XJ_L + XI_J + XD_I + XA_D <= 9;
C364: XA_C + XC_F + XF_K + XH_K + XH_L + XJ_L + XG_J + XG_I + XD_I + XA_D <= 9;
C365: XB_C + XC_D + XD_E + XE_G + XG_H + XH_J + XJ_L + XK_L + XF_K + XB_F <= 9;
C366: XB_C + XC_D + XD_E + XE_G + XG_I + XI_J + XH_J + XH_K + XF_K + XB_F <= 9;
C367: XB_C + XC_D + XD_E + XE_G + XG_I + XI_J + XJ_L + XK_L + XF_K + XB_F <= 9;
C368: XB_C + XC_D + XD_G + XG_I + XI_J + XH_J + XH_L + XK_L + XF_K + XB_F <= 9;
C369: XB_C + XC_D + XD_G + XG_I + XI_J + XJ_L + XH_L + XE_H + XE_F + XB_F <= 9;
C370: XB_C + XC_E + XE_G + XG_I + XD_I + XD_H + XH_L + XK_L + XF_K + XB_F <= 9;
C371: XB_C + XC_E + XE_G + XG_I + XI_J + XH_J + XH_L + XK_L + XF_K + XB_F <= 9;
C372: XB_F + XE_F + XE_H + XH_K + XK_L + XJ_L + XI_J + XD_I + XC_D + XB_C <= 9;
C373: XC_D + XD_E + XE_G + XG_I + XI_J + XH_J + XH_L + XK_L + XF_K + XC_F <= 9;
/*Proibir ciclos de tamanho 11*/
C374: XA_B + XB_C + XC_E + XE_F + XF_K + XH_K + XG_H + XG_J + XI_J + XD_I + XA_D <= 10;
C375: XA_B + XB_C + XC_E + XE_F + XF_K + XH_K + XH_L + XJ_L + XG_J + XD_G + XA_D <= 10;
C376: XA_B + XB_C + XC_E + XE_F + XF_K + XH_K + XH_L + XJ_L + XI_J + XD_I + XA_D <= 10;
C377: XA_B + XB_C + XC_E + XE_F + XF_K + XK_L + XH_L + XG_H + XG_I + XD_I + XA_D <= 10;
C378: XA_B + XB_C + XC_E + XE_F + XF_K + XK_L + XJ_L + XG_J + XG_I + XD_I + XA_D <= 10;
C379: XA_B + XB_C + XC_E + XE_G + XG_H + XH_K + XK_L + XJ_L + XI_J + XD_I + XA_D <= 10;
C380: XA_B + XB_C + XC_F + XE_F + XE_G + XG_H + XH_L + XJ_L + XI_J + XD_I + XA_D <= 10;
C381: XA_B + XB_C + XC_F + XF_K + XH_K + XH_L + XJ_L + XG_J + XG_I + XD_I + XA_D <= 10;
C382: XA_B + XB_F + XE_F + XE_G + XG_H + XH_K + XK_L + XJ_L + XI_J + XD_I + XA_D <= 10;
C383: XA_B + XB_F + XF_K + XH_K + XH_L + XJ_L + XI_J + XG_I + XE_G + XC_E + XA_C <= 10;
C384: XA_C + XC_E + XE_F + XF_K + XH_K + XH_L + XJ_L + XG_J + XG_I + XD_I + XA_D <= 10;
C385: XB_C + XC_D + XD_E + XE_G + XG_I + XI_J + XH_J + XH_L + XK_L + XF_K + XB_F <= 10;
/*Xi_j se for 1, significa que passara pela aresta de i e j, ou seja, eles só podem ser 0 ou 1*/
bin XA_B;
bin XA_C;
bin XA_D;
bin XB_C;
bin XB_F;
bin XC_D;
bin XC_E;
bin XC_F;
bin XD_E;
bin XD_G;
bin XD_H;
bin XE_F;
bin XE_G;
bin XE_H;
bin XF_K;
bin XG_H;
bin XG_I;
bin XG_J;
bin XH_J;
bin XH_K;
bin XH_L;
bin XI_J;
bin XJ_L;
bin XK_L;
